
%    +-----------+
% 8  | | | | | | |
% 7  | | | | | | |
% 6  |1|1| | | | |
% 5  |1|1|6| | | |
% 4  | | | |4|7| |
% 3  | | | |5| | |
% 2  | | |2| |8| |
% 1  | | | | |3| |
%    +-----------+
n=6;
m=8;
h=2;
%maxT=30;
boxNumber=8;
boxSideLen = [2, 1, 1, 1, 1, 1, 1, 1];
boxStartX  = [1, 3, 5, 4, 4, 3, 5, 5];
boxStartY  = [5, 2, 1, 4, 3, 5, 4, 2];
